Minimize
 obj: 0 X_0_1
Subject To
 out_0:
  + 1 X_0_1 + 1 X_0_2 + 1 X_0_3 + 1 X_0_4 + 1 X_0_5 + 1 X_0_6 + 1 X_0_7 + 1 X_0_8
  + 1 X_0_9
  = 1
 in_0:
  + 1 X_1_0 + 1 X_2_0 + 1 X_3_0 + 1 X_4_0 + 1 X_5_0 + 1 X_6_0 + 1 X_7_0 + 1 X_8_0
  + 1 X_9_0
  = 1
 out_1:
  + 1 X_1_0 + 1 X_1_2 + 1 X_1_3 + 1 X_1_4 + 1 X_1_5 + 1 X_1_6 + 1 X_1_7 + 1 X_1_8
  + 1 X_1_9
  = 1
 in_1:
  + 1 X_0_1 + 1 X_2_1 + 1 X_3_1 + 1 X_4_1 + 1 X_5_1 + 1 X_6_1 + 1 X_7_1 + 1 X_8_1
  + 1 X_9_1
  = 1
 out_2:
  + 1 X_2_0 + 1 X_2_1 + 1 X_2_3 + 1 X_2_4 + 1 X_2_5 + 1 X_2_6 + 1 X_2_7 + 1 X_2_8
  + 1 X_2_9
  = 1
 in_2:
  + 1 X_0_2 + 1 X_1_2 + 1 X_3_2 + 1 X_4_2 + 1 X_5_2 + 1 X_6_2 + 1 X_7_2 + 1 X_8_2
  + 1 X_9_2
  = 1
 out_3:
  + 1 X_3_0 + 1 X_3_1 + 1 X_3_2 + 1 X_3_4 + 1 X_3_5 + 1 X_3_6 + 1 X_3_7 + 1 X_3_8
  + 1 X_3_9
  = 1
 in_3:
  + 1 X_0_3 + 1 X_1_3 + 1 X_2_3 + 1 X_4_3 + 1 X_5_3 + 1 X_6_3 + 1 X_7_3 + 1 X_8_3
  + 1 X_9_3
  = 1
 out_4:
  + 1 X_4_0 + 1 X_4_1 + 1 X_4_2 + 1 X_4_3 + 1 X_4_5 + 1 X_4_6 + 1 X_4_7 + 1 X_4_8
  + 1 X_4_9
  = 1
 in_4:
  + 1 X_0_4 + 1 X_1_4 + 1 X_2_4 + 1 X_3_4 + 1 X_5_4 + 1 X_6_4 + 1 X_7_4 + 1 X_8_4
  + 1 X_9_4
  = 1
 out_5:
  + 1 X_5_0 + 1 X_5_1 + 1 X_5_2 + 1 X_5_3 + 1 X_5_4 + 1 X_5_6 + 1 X_5_7 + 1 X_5_8
  + 1 X_5_9
  = 1
 in_5:
  + 1 X_0_5 + 1 X_1_5 + 1 X_2_5 + 1 X_3_5 + 1 X_4_5 + 1 X_6_5 + 1 X_7_5 + 1 X_8_5
  + 1 X_9_5
  = 1
 out_6:
  + 1 X_6_0 + 1 X_6_1 + 1 X_6_2 + 1 X_6_3 + 1 X_6_4 + 1 X_6_5 + 1 X_6_7 + 1 X_6_8
  + 1 X_6_9
  = 1
 in_6:
  + 1 X_0_6 + 1 X_1_6 + 1 X_2_6 + 1 X_3_6 + 1 X_4_6 + 1 X_5_6 + 1 X_7_6 + 1 X_8_6
  + 1 X_9_6
  = 1
 out_7:
  + 1 X_7_0 + 1 X_7_1 + 1 X_7_2 + 1 X_7_3 + 1 X_7_4 + 1 X_7_5 + 1 X_7_6 + 1 X_7_8
  + 1 X_7_9
  = 1
 in_7:
  + 1 X_0_7 + 1 X_1_7 + 1 X_2_7 + 1 X_3_7 + 1 X_4_7 + 1 X_5_7 + 1 X_6_7 + 1 X_8_7
  + 1 X_9_7
  = 1
 out_8:
  + 1 X_8_0 + 1 X_8_1 + 1 X_8_2 + 1 X_8_3 + 1 X_8_4 + 1 X_8_5 + 1 X_8_6 + 1 X_8_7
  + 1 X_8_9
  = 1
 in_8:
  + 1 X_0_8 + 1 X_1_8 + 1 X_2_8 + 1 X_3_8 + 1 X_4_8 + 1 X_5_8 + 1 X_6_8 + 1 X_7_8
  + 1 X_9_8
  = 1
 out_9:
  + 1 X_9_0 + 1 X_9_1 + 1 X_9_2 + 1 X_9_3 + 1 X_9_4 + 1 X_9_5 + 1 X_9_6 + 1 X_9_7
  + 1 X_9_8
  = 1
 in_9:
  + 1 X_0_9 + 1 X_1_9 + 1 X_2_9 + 1 X_3_9 + 1 X_4_9 + 1 X_5_9 + 1 X_6_9 + 1 X_7_9
  + 1 X_8_9
  = 1
 mtz_1_2:
  + 1 U1 - 1 U2 + 9 X_1_2
  <= 8
 mtz_1_3:
  + 1 U1 - 1 U3 + 9 X_1_3
  <= 8
 mtz_1_4:
  + 1 U1 - 1 U4 + 9 X_1_4
  <= 8
 mtz_1_5:
  + 1 U1 - 1 U5 + 9 X_1_5
  <= 8
 mtz_1_6:
  + 1 U1 - 1 U6 + 9 X_1_6
  <= 8
 mtz_1_7:
  + 1 U1 - 1 U7 + 9 X_1_7
  <= 8
 mtz_1_8:
  + 1 U1 - 1 U8 + 9 X_1_8
  <= 8
 mtz_1_9:
  + 1 U1 - 1 U9 + 9 X_1_9
  <= 8
 mtz_2_1:
  + 1 U2 - 1 U1 + 9 X_2_1
  <= 8
 mtz_2_3:
  + 1 U2 - 1 U3 + 9 X_2_3
  <= 8
 mtz_2_4:
  + 1 U2 - 1 U4 + 9 X_2_4
  <= 8
 mtz_2_5:
  + 1 U2 - 1 U5 + 9 X_2_5
  <= 8
 mtz_2_6:
  + 1 U2 - 1 U6 + 9 X_2_6
  <= 8
 mtz_2_7:
  + 1 U2 - 1 U7 + 9 X_2_7
  <= 8
 mtz_2_8:
  + 1 U2 - 1 U8 + 9 X_2_8
  <= 8
 mtz_2_9:
  + 1 U2 - 1 U9 + 9 X_2_9
  <= 8
 mtz_3_1:
  + 1 U3 - 1 U1 + 9 X_3_1
  <= 8
 mtz_3_2:
  + 1 U3 - 1 U2 + 9 X_3_2
  <= 8
 mtz_3_4:
  + 1 U3 - 1 U4 + 9 X_3_4
  <= 8
 mtz_3_5:
  + 1 U3 - 1 U5 + 9 X_3_5
  <= 8
 mtz_3_6:
  + 1 U3 - 1 U6 + 9 X_3_6
  <= 8
 mtz_3_7:
  + 1 U3 - 1 U7 + 9 X_3_7
  <= 8
 mtz_3_8:
  + 1 U3 - 1 U8 + 9 X_3_8
  <= 8
 mtz_3_9:
  + 1 U3 - 1 U9 + 9 X_3_9
  <= 8
 mtz_4_1:
  + 1 U4 - 1 U1 + 9 X_4_1
  <= 8
 mtz_4_2:
  + 1 U4 - 1 U2 + 9 X_4_2
  <= 8
 mtz_4_3:
  + 1 U4 - 1 U3 + 9 X_4_3
  <= 8
 mtz_4_5:
  + 1 U4 - 1 U5 + 9 X_4_5
  <= 8
 mtz_4_6:
  + 1 U4 - 1 U6 + 9 X_4_6
  <= 8
 mtz_4_7:
  + 1 U4 - 1 U7 + 9 X_4_7
  <= 8
 mtz_4_8:
  + 1 U4 - 1 U8 + 9 X_4_8
  <= 8
 mtz_4_9:
  + 1 U4 - 1 U9 + 9 X_4_9
  <= 8
 mtz_5_1:
  + 1 U5 - 1 U1 + 9 X_5_1
  <= 8
 mtz_5_2:
  + 1 U5 - 1 U2 + 9 X_5_2
  <= 8
 mtz_5_3:
  + 1 U5 - 1 U3 + 9 X_5_3
  <= 8
 mtz_5_4:
  + 1 U5 - 1 U4 + 9 X_5_4
  <= 8
 mtz_5_6:
  + 1 U5 - 1 U6 + 9 X_5_6
  <= 8
 mtz_5_7:
  + 1 U5 - 1 U7 + 9 X_5_7
  <= 8
 mtz_5_8:
  + 1 U5 - 1 U8 + 9 X_5_8
  <= 8
 mtz_5_9:
  + 1 U5 - 1 U9 + 9 X_5_9
  <= 8
 mtz_6_1:
  + 1 U6 - 1 U1 + 9 X_6_1
  <= 8
 mtz_6_2:
  + 1 U6 - 1 U2 + 9 X_6_2
  <= 8
 mtz_6_3:
  + 1 U6 - 1 U3 + 9 X_6_3
  <= 8
 mtz_6_4:
  + 1 U6 - 1 U4 + 9 X_6_4
  <= 8
 mtz_6_5:
  + 1 U6 - 1 U5 + 9 X_6_5
  <= 8
 mtz_6_7:
  + 1 U6 - 1 U7 + 9 X_6_7
  <= 8
 mtz_6_8:
  + 1 U6 - 1 U8 + 9 X_6_8
  <= 8
 mtz_6_9:
  + 1 U6 - 1 U9 + 9 X_6_9
  <= 8
 mtz_7_1:
  + 1 U7 - 1 U1 + 9 X_7_1
  <= 8
 mtz_7_2:
  + 1 U7 - 1 U2 + 9 X_7_2
  <= 8
 mtz_7_3:
  + 1 U7 - 1 U3 + 9 X_7_3
  <= 8
 mtz_7_4:
  + 1 U7 - 1 U4 + 9 X_7_4
  <= 8
 mtz_7_5:
  + 1 U7 - 1 U5 + 9 X_7_5
  <= 8
 mtz_7_6:
  + 1 U7 - 1 U6 + 9 X_7_6
  <= 8
 mtz_7_8:
  + 1 U7 - 1 U8 + 9 X_7_8
  <= 8
 mtz_7_9:
  + 1 U7 - 1 U9 + 9 X_7_9
  <= 8
 mtz_8_1:
  + 1 U8 - 1 U1 + 9 X_8_1
  <= 8
 mtz_8_2:
  + 1 U8 - 1 U2 + 9 X_8_2
  <= 8
 mtz_8_3:
  + 1 U8 - 1 U3 + 9 X_8_3
  <= 8
 mtz_8_4:
  + 1 U8 - 1 U4 + 9 X_8_4
  <= 8
 mtz_8_5:
  + 1 U8 - 1 U5 + 9 X_8_5
  <= 8
 mtz_8_6:
  + 1 U8 - 1 U6 + 9 X_8_6
  <= 8
 mtz_8_7:
  + 1 U8 - 1 U7 + 9 X_8_7
  <= 8
 mtz_8_9:
  + 1 U8 - 1 U9 + 9 X_8_9
  <= 8
 mtz_9_1:
  + 1 U9 - 1 U1 + 9 X_9_1
  <= 8
 mtz_9_2:
  + 1 U9 - 1 U2 + 9 X_9_2
  <= 8
 mtz_9_3:
  + 1 U9 - 1 U3 + 9 X_9_3
  <= 8
 mtz_9_4:
  + 1 U9 - 1 U4 + 9 X_9_4
  <= 8
 mtz_9_5:
  + 1 U9 - 1 U5 + 9 X_9_5
  <= 8
 mtz_9_6:
  + 1 U9 - 1 U6 + 9 X_9_6
  <= 8
 mtz_9_7:
  + 1 U9 - 1 U7 + 9 X_9_7
  <= 8
 mtz_9_8:
  + 1 U9 - 1 U8 + 9 X_9_8
  <= 8
 obj1:
  + 281 X_0_1 + 870 X_0_2 + 653 X_0_3 + 213 X_0_4 + 251 X_0_5 + 714 X_0_6 + 254 X_0_7 + 444 X_0_8
  + 618 X_0_9 + 281 X_1_0 + 873 X_1_2 + 887 X_1_3 + 468 X_1_4 + 92 X_1_5 + 854 X_1_6 + 114 X_1_7
  + 680 X_1_8 + 602 X_1_9 + 870 X_2_0 + 873 X_2_1 + 767 X_2_3 + 787 X_2_4 + 786 X_2_5 + 424 X_2_6
  + 763 X_2_7 + 729 X_2_8 + 270 X_2_9 + 653 X_3_0 + 887 X_3_1 + 767 X_3_2 + 440 X_3_4 + 812 X_3_5
  + 353 X_3_6 + 798 X_3_7 + 209 X_3_8 + 695 X_3_9 + 213 X_4_0 + 468 X_4_1 + 787 X_4_2 + 440 X_4_3
  + 409 X_4_5 + 544 X_4_6 + 401 X_4_7 + 231 X_4_8 + 575 X_4_9 + 251 X_5_0 + 92 X_5_1 + 786 X_5_2
  + 812 X_5_3 + 409 X_5_4 + 763 X_5_6 + 23 X_5_7 + 608 X_5_8 + 515 X_5_9 + 714 X_6_0 + 854 X_6_1
  + 424 X_6_2 + 353 X_6_3 + 544 X_6_4 + 763 X_6_5 + 743 X_6_7 + 383 X_6_8 + 430 X_6_9 + 254 X_7_0
  + 114 X_7_1 + 763 X_7_2 + 798 X_7_3 + 401 X_7_4 + 23 X_7_5 + 743 X_7_6 + 595 X_7_8 + 492 X_7_9
  + 444 X_8_0 + 680 X_8_1 + 729 X_8_2 + 209 X_8_3 + 231 X_8_4 + 608 X_8_5 + 383 X_8_6 + 595 X_8_7
  + 587 X_8_9 + 618 X_9_0 + 602 X_9_1 + 270 X_9_2 + 695 X_9_3 + 575 X_9_4 + 515 X_9_5 + 430 X_9_6
  + 492 X_9_7 + 587 X_9_8
  <= 1
 obj2:
  + 621 X_0_1 + 84 X_0_2 + 393 X_0_3 + 444 X_0_4 + 108 X_0_5 + 527 X_0_6 + 655 X_0_7 + 334 X_0_8
  + 587 X_0_9 + 621 X_1_0 + 686 X_1_2 + 969 X_1_3 + 617 X_1_4 + 634 X_1_5 + 418 X_1_6 + 279 X_1_7
  + 952 X_1_8 + 968 X_1_9 + 84 X_2_0 + 686 X_2_1 + 383 X_2_3 + 422 X_2_4 + 175 X_2_5 + 612 X_2_6
  + 737 X_2_7 + 266 X_2_8 + 628 X_2_9 + 393 X_3_0 + 969 X_3_1 + 383 X_3_2 + 802 X_3_4 + 338 X_3_5
  + 726 X_3_6 + 916 X_3_7 + 282 X_3_8 + 370 X_3_9 + 444 X_4_0 + 617 X_4_1 + 422 X_4_2 + 802 X_4_3
  + 548 X_4_5 + 799 X_4_6 + 815 X_4_7 + 608 X_4_8 + 1030 X_4_9 + 108 X_5_0 + 634 X_5_1 + 175 X_5_2
  + 338 X_5_3 + 548 X_5_4 + 466 X_5_6 + 621 X_5_7 + 364 X_5_8 + 483 X_5_9 + 527 X_6_0 + 418 X_6_1
  + 612 X_6_2 + 726 X_6_3 + 799 X_6_4 + 466 X_6_5 + 212 X_6_7 + 830 X_6_8 + 600 X_6_9 + 655 X_7_0
  + 279 X_7_1 + 737 X_7_2 + 916 X_7_3 + 815 X_7_4 + 621 X_7_5 + 212 X_7_6 + 981 X_7_8 + 812 X_7_9
  + 334 X_8_0 + 952 X_8_1 + 266 X_8_2 + 282 X_8_3 + 608 X_8_4 + 364 X_8_5 + 830 X_8_6 + 981 X_8_7
  + 639 X_8_9 + 587 X_9_0 + 968 X_9_1 + 628 X_9_2 + 370 X_9_3 + 1030 X_9_4 + 483 X_9_5 + 600 X_9_6
  + 812 X_9_7 + 639 X_9_8
  <= 2
 obj3:
  + 1088 X_0_1 + 113 X_0_2 + 861 X_0_3 + 654 X_0_4 + 761 X_0_5 + 42 X_0_6 + 1007 X_0_7 + 743 X_0_8
  + 549 X_0_9 + 1088 X_1_0 + 977 X_1_2 + 245 X_1_3 + 450 X_1_4 + 518 X_1_5 + 1055 X_1_6 + 406 X_1_7
  + 387 X_1_8 + 625 X_1_9 + 113 X_2_0 + 977 X_2_1 + 753 X_2_3 + 549 X_2_4 + 652 X_2_5 + 77 X_2_6
  + 914 X_2_7 + 639 X_2_8 + 439 X_2_9 + 861 X_3_0 + 245 X_3_1 + 753 X_3_2 + 209 X_3_4 + 446 X_3_5
  + 831 X_3_6 + 302 X_3_7 + 141 X_3_8 + 466 X_3_9 + 654 X_4_0 + 450 X_4_1 + 549 X_4_2 + 209 X_4_3
  + 424 X_4_5 + 626 X_4_6 + 402 X_4_7 + 95 X_4_8 + 346 X_4_9 + 761 X_5_0 + 518 X_5_1 + 652 X_5_2
  + 446 X_5_3 + 424 X_5_4 + 720 X_5_6 + 747 X_5_7 + 474 X_5_8 + 213 X_5_9 + 42 X_6_0 + 1055 X_6_1
  + 77 X_6_2 + 831 X_6_3 + 626 X_6_4 + 720 X_6_5 + 987 X_6_7 + 716 X_6_8 + 508 X_6_9 + 1007 X_7_0
  + 406 X_7_1 + 914 X_7_2 + 302 X_7_3 + 402 X_7_4 + 747 X_7_5 + 987 X_7_6 + 310 X_7_8 + 736 X_7_9
  + 743 X_8_0 + 387 X_8_1 + 639 X_8_2 + 141 X_8_3 + 95 X_8_4 + 474 X_8_5 + 716 X_8_6 + 310 X_8_7
  + 429 X_8_9 + 549 X_9_0 + 625 X_9_1 + 439 X_9_2 + 466 X_9_3 + 346 X_9_4 + 213 X_9_5 + 508 X_9_6
  + 736 X_9_7 + 429 X_9_8
  <= 3
 obj4:
  + 300 X_0_1 + 172 X_0_2 + 537 X_0_3 + 475 X_0_4 + 499 X_0_5 + 342 X_0_6 + 308 X_0_7 + 462 X_0_8
  + 139 X_0_9 + 300 X_1_0 + 394 X_1_2 + 282 X_1_3 + 428 X_1_4 + 244 X_1_5 + 557 X_1_6 + 521 X_1_7
  + 738 X_1_8 + 398 X_1_9 + 172 X_2_0 + 394 X_2_1 + 665 X_2_3 + 380 X_2_4 + 626 X_2_5 + 175 X_2_6
  + 444 X_2_7 + 519 X_2_8 + 54 X_2_9 + 537 X_3_0 + 282 X_3_1 + 665 X_3_2 + 682 X_3_4 + 38 X_3_5
  + 835 X_3_6 + 645 X_3_7 + 900 X_3_8 + 659 X_3_9 + 475 X_4_0 + 428 X_4_1 + 380 X_4_2 + 682 X_4_3
  + 649 X_4_5 + 412 X_4_6 + 784 X_4_7 + 899 X_4_8 + 432 X_4_9 + 499 X_5_0 + 244 X_5_1 + 626 X_5_2
  + 38 X_5_3 + 649 X_5_4 + 796 X_5_6 + 616 X_5_7 + 869 X_5_8 + 621 X_5_9 + 342 X_6_0 + 557 X_6_1
  + 175 X_6_2 + 835 X_6_3 + 412 X_6_4 + 796 X_6_5 + 570 X_6_7 + 571 X_6_8 + 204 X_6_9 + 308 X_7_0
  + 521 X_7_1 + 444 X_7_2 + 645 X_7_3 + 784 X_7_4 + 616 X_7_5 + 570 X_7_6 + 263 X_7_8 + 391 X_7_9
  + 462 X_8_0 + 738 X_8_1 + 519 X_8_2 + 900 X_8_3 + 899 X_8_4 + 869 X_8_5 + 571 X_8_6 + 263 X_8_7
  + 467 X_8_9 + 139 X_9_0 + 398 X_9_1 + 54 X_9_2 + 659 X_9_3 + 432 X_9_4 + 621 X_9_5 + 204 X_9_6
  + 391 X_9_7 + 467 X_9_8
  <= 4
Bounds
 1 <= U1 <= 9
 1 <= U2 <= 9
 1 <= U3 <= 9
 1 <= U4 <= 9
 1 <= U5 <= 9
 1 <= U6 <= 9
 1 <= U7 <= 9
 1 <= U8 <= 9
 1 <= U9 <= 9
Binary
 X_0_1
 X_0_2
 X_0_3
 X_0_4
 X_0_5
 X_0_6
 X_0_7
 X_0_8
 X_0_9
 X_1_0
 X_1_2
 X_1_3
 X_1_4
 X_1_5
 X_1_6
 X_1_7
 X_1_8
 X_1_9
 X_2_0
 X_2_1
 X_2_3
 X_2_4
 X_2_5
 X_2_6
 X_2_7
 X_2_8
 X_2_9
 X_3_0
 X_3_1
 X_3_2
 X_3_4
 X_3_5
 X_3_6
 X_3_7
 X_3_8
 X_3_9
 X_4_0
 X_4_1
 X_4_2
 X_4_3
 X_4_5
 X_4_6
 X_4_7
 X_4_8
 X_4_9
 X_5_0
 X_5_1
 X_5_2
 X_5_3
 X_5_4
 X_5_6
 X_5_7
 X_5_8
 X_5_9
 X_6_0
 X_6_1
 X_6_2
 X_6_3
 X_6_4
 X_6_5
 X_6_7
 X_6_8
 X_6_9
 X_7_0
 X_7_1
 X_7_2
 X_7_3
 X_7_4
 X_7_5
 X_7_6
 X_7_8
 X_7_9
 X_8_0
 X_8_1
 X_8_2
 X_8_3
 X_8_4
 X_8_5
 X_8_6
 X_8_7
 X_8_9
 X_9_0
 X_9_1
 X_9_2
 X_9_3
 X_9_4
 X_9_5
 X_9_6
 X_9_7
 X_9_8
End
